
Starting CP-SAT solver v9.15.6755
Parameters: random_seed: 2026073622 max_time_in_seconds: 2421.7123639856668 log_search_progress: true cp_model_presolve: true linearization_level: 2 num_search_workers: 4 cp_model_probing_level: 2 symmetry_level: 2

Initial satisfaction model '': (model_fingerprint: 0xf5ef56fd59f55f26)
#Variables: 724 (608 primary variables)
  - 724 Booleans in [0,1]
#kBoolAnd: 110 (#enforced: 110) (#literals: 330)
#kBoolOr: 110 (#enforced: 110) (#literals: 220)
#kExactlyOne: 87 (#literals: 261)
#kLinear1: 32 (#enforced: 6)
#kLinear2: 336 (#enforced: 336) (#complex_domain: 110)
#kLinear3: 1'600 (#enforced: 6)
#kLinearN: 1'132 (#enforced: 243) (#terms: 9'111)

Starting presolve at 0.00s
  6.69e-04s  0.00e+00d  [DetectDominanceRelations] 
  8.79e-03s  0.00e+00d  [PresolveToFixPoint] #num_loops=3 #num_dual_strengthening=1 
  3.44e-05s  0.00e+00d  [ExtractEncodingFromLinear] #potential_supersets=86 
  3.01e-04s  0.00e+00d  [DetectDuplicateColumns] 
  9.97e-05s  0.00e+00d  [DetectDuplicateConstraints] #duplicates=5 
[Symmetry] Graph for symmetry has 4'868 nodes and 15'708 arcs.
[Symmetry] Symmetry computation done. time: 0.00124835 dtime: 0.00181883
[SAT presolve] num removable Booleans: 220 / 626
[SAT presolve] num trivial clauses: 0
[SAT presolve] [0s] clauses:2'732 literals:7'430 vars:506 one_side_vars:66 simple_definition:1 singleton_clauses:0
[SAT presolve] [0.000231643s] clauses:2'731 literals:7'423 vars:506 one_side_vars:66 simple_definition:1 singleton_clauses:0
[SAT presolve] [0.000595444s] clauses:2'410 literals:6'918 vars:389 one_side_vars:68 simple_definition:24 singleton_clauses:0
  1.19e-04s  0.00e+00d  [DetectDuplicateConstraintsWithDifferentEnforcements] #without_enforcements=2 
  5.72e-03s  2.78e-03d  [Probe] #probed=1'305 #fixed_bools=11 #equiv=8 #new_binary_clauses=953 
  5.36e-04s  4.10e-04d  [MaxClique] Merged 655 constraints with 1'449 literals into 572 constraints with 1'312 literals
  8.59e-04s  0.00e+00d  [DetectDominanceRelations] 
  3.15e-03s  0.00e+00d  [PresolveToFixPoint] #num_loops=1 #num_dual_strengthening=1 
  1.19e-03s  0.00e+00d  [ProcessAtMostOneAndLinear] 
  1.07e-04s  0.00e+00d  [DetectDuplicateConstraints] #duplicates=6 
  9.04e-05s  0.00e+00d  [DetectDuplicateConstraintsWithDifferentEnforcements] 
  3.33e-03s  1.05e-04d  [DetectDominatedLinearConstraints] #relevant_constraints=827 #num_inclusions=517 #num_redundant=6 
  1.28e-04s  0.00e+00d  [DetectDifferentVariables] 
  7.55e-04s  8.81e-05d  [ProcessSetPPC] #relevant_constraints=3'164 #num_inclusions=217 
  2.84e-04s  3.44e-05d  [TransformClausesToExactlyOne] #num_amos=576 #num_clauses=1'766 #num_checked=1'766 
  5.17e-05s  0.00e+00d  [DetectEncodedComplexDomains] 
  3.13e-05s  1.00e-07d  [FindAlmostIdenticalLinearConstraints] #num_tested_pairs=1 
  9.49e-04s  1.43e-03d  [FindBigAtMostOneAndLinearOverlap] 
  1.44e-03s  1.18e-03d  [FindBigVerticalLinearOverlap] #blocks=6 #saved_nz=240 
  3.27e-04s  5.29e-04d  [FindBigHorizontalLinearOverlap] #linears=454 
  3.15e-04s  2.79e-05d  [MergeClauses] #num_collisions=4 #num_merges=4 #num_saved_literals=17 
  8.56e-04s  0.00e+00d  [DetectDominanceRelations] 
  3.31e-03s  0.00e+00d  [PresolveToFixPoint] #num_loops=2 #num_dual_strengthening=1 
  8.37e-04s  0.00e+00d  [DetectDominanceRelations] 
  3.02e-03s  0.00e+00d  [PresolveToFixPoint] #num_loops=1 #num_dual_strengthening=1 
  1.57e-04s  0.00e+00d  [DetectDuplicateColumns] 
  9.44e-05s  0.00e+00d  [DetectDuplicateConstraints] 
[Symmetry] Graph for symmetry has 4'623 nodes and 14'188 arcs.
[Symmetry] Symmetry computation done. time: 0.00110569 dtime: 0.00157347
[SAT presolve] num removable Booleans: 102 / 508
[SAT presolve] num trivial clauses: 0
[SAT presolve] [0s] clauses:2'359 literals:6'814 vars:485 one_side_vars:146 simple_definition:45 singleton_clauses:0
[SAT presolve] [0.000242063s] clauses:2'353 literals:6'631 vars:485 one_side_vars:159 simple_definition:91 singleton_clauses:0
[SAT presolve] [0.000375542s] clauses:2'218 literals:6'326 vars:479 one_side_vars:183 simple_definition:71 singleton_clauses:0
  1.48e-04s  0.00e+00d  [DetectDuplicateConstraintsWithDifferentEnforcements] 
  5.89e-03s  2.14e-03d  [Probe] #probed=1'330 #new_binary_clauses=700 
  4.73e-04s  3.92e-04d  [MaxClique] Merged 524 constraints with 1'154 literals into 520 constraints with 1'154 literals
  8.49e-04s  0.00e+00d  [DetectDominanceRelations] 
  3.09e-03s  0.00e+00d  [PresolveToFixPoint] #num_loops=1 #num_dual_strengthening=1 
  1.09e-03s  0.00e+00d  [ProcessAtMostOneAndLinear] 
  1.05e-04s  0.00e+00d  [DetectDuplicateConstraints] 
  9.66e-05s  0.00e+00d  [DetectDuplicateConstraintsWithDifferentEnforcements] 
  6.59e-04s  5.44e-05d  [DetectDominatedLinearConstraints] #relevant_constraints=810 #num_inclusions=281 
  1.25e-04s  0.00e+00d  [DetectDifferentVariables] 
  7.46e-04s  7.30e-05d  [ProcessSetPPC] #relevant_constraints=3'124 #num_inclusions=103 
  2.81e-04s  3.36e-05d  [TransformClausesToExactlyOne] #num_amos=520 #num_clauses=1'741 #num_checked=1'741 
  1.49e-04s  0.00e+00d  [DetectEncodedComplexDomains] 
  4.00e-05s  1.00e-07d  [FindAlmostIdenticalLinearConstraints] #num_tested_pairs=1 
  9.29e-04s  1.11e-03d  [FindBigAtMostOneAndLinearOverlap] 
  1.27e-03s  9.81e-04d  [FindBigVerticalLinearOverlap] 
  3.20e-04s  5.29e-04d  [FindBigHorizontalLinearOverlap] #linears=454 
  3.27e-04s  2.68e-05d  [MergeClauses] #num_collisions=76 #num_merges=76 #num_saved_literals=198 
  8.47e-04s  0.00e+00d  [DetectDominanceRelations] 
  3.09e-03s  0.00e+00d  [PresolveToFixPoint] #num_loops=1 #num_dual_strengthening=1 
  8.37e-04s  0.00e+00d  [DetectDominanceRelations] 
  3.07e-03s  0.00e+00d  [PresolveToFixPoint] #num_loops=1 #num_dual_strengthening=1 
  1.84e-04s  0.00e+00d  [DetectDuplicateColumns] 
  1.00e-04s  0.00e+00d  [DetectDuplicateConstraints] 
[Symmetry] Graph for symmetry has 4'404 nodes and 13'421 arcs.
[Symmetry] Symmetry computation done. time: 0.00100884 dtime: 0.00144781
[SAT presolve] num removable Booleans: 96 / 502
[SAT presolve] num trivial clauses: 0
[SAT presolve] [0s] clauses:2'211 literals:6'302 vars:479 one_side_vars:185 simple_definition:71 singleton_clauses:0
[SAT presolve] [0.000214471s] clauses:2'211 literals:6'302 vars:479 one_side_vars:185 simple_definition:71 singleton_clauses:0
[SAT presolve] [0.000279803s] clauses:2'211 literals:6'302 vars:479 one_side_vars:185 simple_definition:71 singleton_clauses:0
  1.57e-04s  0.00e+00d  [DetectDuplicateConstraintsWithDifferentEnforcements] 
  5.86e-03s  2.14e-03d  [Probe] #probed=1'330 #new_binary_clauses=699 
  4.67e-04s  3.89e-04d  [MaxClique] Merged 519 constraints with 1'144 literals into 518 constraints with 1'143 literals
  8.71e-04s  0.00e+00d  [DetectDominanceRelations] 
  3.13e-03s  0.00e+00d  [PresolveToFixPoint] #num_loops=1 #num_dual_strengthening=1 
  1.10e-03s  0.00e+00d  [ProcessAtMostOneAndLinear] 
  1.08e-04s  0.00e+00d  [DetectDuplicateConstraints] 
  1.05e-04s  0.00e+00d  [DetectDuplicateConstraintsWithDifferentEnforcements] 
  6.54e-04s  5.44e-05d  [DetectDominatedLinearConstraints] #relevant_constraints=810 #num_inclusions=281 
  1.27e-04s  0.00e+00d  [DetectDifferentVariables] 
  7.45e-04s  7.29e-05d  [ProcessSetPPC] #relevant_constraints=3'122 #num_inclusions=101 
  2.91e-04s  3.36e-05d  [TransformClausesToExactlyOne] #num_amos=518 #num_clauses=1'741 #num_checked=1'741 
  1.51e-04s  0.00e+00d  [DetectEncodedComplexDomains] 
  4.68e-05s  1.90e-07d  [FindAlmostIdenticalLinearConstraints] #num_tested_pairs=2 
  8.29e-04s  1.11e-03d  [FindBigAtMostOneAndLinearOverlap] 
  1.30e-03s  9.78e-04d  [FindBigVerticalLinearOverlap] #blocks=2 #saved_nz=223 
  3.43e-04s  5.29e-04d  [FindBigHorizontalLinearOverlap] #linears=455 
  3.43e-04s  2.68e-05d  [MergeClauses] #num_collisions=76 #num_merges=76 #num_saved_literals=198 
  8.69e-04s  0.00e+00d  [DetectDominanceRelations] 
  3.16e-03s  0.00e+00d  [PresolveToFixPoint] #num_loops=2 #num_dual_strengthening=1 
  2.99e-05s  0.00e+00d  [MergeNoOverlap] 
  3.05e-05s  0.00e+00d  [MergeNoOverlap2D] 

Presolve summary:
  - 38 affine relations were detected.
  - rule 'TODO dual: only one blocking constraint?' was applied 856 times.
  - rule 'TODO linear inclusion: superset is equality' was applied 162 times.
  - rule 'affine: new relation' was applied 38 times.
  - rule 'at_most_one: removed literals' was applied 51 times.
  - rule 'at_most_one: size one' was applied 50 times.
  - rule 'at_most_one: transformed into max clique' was applied 3 times.
  - rule 'bool_or: implications' was applied 68 times.
  - rule 'bool_or: only one literal' was applied 12 times.
  - rule 'bool_or: removed enforcement literal' was applied 605 times.
  - rule 'deductions: 897 stored' was applied 1 time.
  - rule 'duplicate: merged rhs of linear constraint' was applied 10 times.
  - rule 'duplicate: removed constraint' was applied 11 times.
  - rule 'duplicate: removed enforced constraint' was applied 2 times.
  - rule 'enforcement: false literal' was applied 34 times.
  - rule 'enforcement: true literal' was applied 8 times.
  - rule 'exactly_one: removed literals' was applied 32 times.
  - rule 'exactly_one: satisfied' was applied 3 times.
  - rule 'exactly_one: singleton' was applied 2 times.
  - rule 'exactly_one: size two' was applied 30 times.
  - rule 'exactly_one: x and not(x)' was applied 5 times.
  - rule 'incompatible linear: add implication' was applied 129 times.
  - rule 'linear + amo: empty after processing' was applied 6 times.
  - rule 'linear + amo: extracted enforcement literal' was applied 56 times.
  - rule 'linear + amo: trivial linear constraint' was applied 1 time.
  - rule 'linear inclusion: redundant containing constraint' was applied 2 times.
  - rule 'linear inclusion: redundant included constraint' was applied 3 times.
  - rule 'linear inclusion: sparsify superset' was applied 1 time.
  - rule 'linear matrix: common vertical rectangle' was applied 8 times.
  - rule 'linear1: always true' was applied 1 time.
  - rule 'linear1: x in domain' was applied 26 times.
  - rule 'linear2: convert ax + by != cte to clauses' was applied 264 times.
  - rule 'linear2: convert implied ax + by == cte to clauses' was applied 126 times.
  - rule 'linear2: implied ax + by = cte has only one solution' was applied 8 times.
  - rule 'linear: always true' was applied 416 times.
  - rule 'linear: empty' was applied 1 time.
  - rule 'linear: extracted at most one (max)' was applied 1 time.
  - rule 'linear: fixed or dup variables' was applied 879 times.
  - rule 'linear: negative clause' was applied 1'299 times.
  - rule 'linear: negative reified and' was applied 78 times.
  - rule 'linear: never in domain' was applied 6 times.
  - rule 'linear: positive at most one' was applied 34 times.
  - rule 'linear: reduced variable domains' was applied 9 times.
  - rule 'linear: remapped using affine relations' was applied 22 times.
  - rule 'new_bool: integer encoding' was applied 18 times.
  - rule 'presolve: 77 unused variables removed.' was applied 1 time.
  - rule 'presolve: iteration' was applied 3 times.
  - rule 'probing: bool_or reduced to implication' was applied 22 times.
  - rule 'probing: simplified clauses' was applied 17 times.
  - rule 'setppc: bool_or in at_most_one' was applied 7 times.
  - rule 'setppc: removed dominated constraints' was applied 91 times.
  - rule 'variables: add encoding constraint' was applied 18 times.

Presolved satisfaction model '': (model_fingerprint: 0x2a1da3b6940467f3)
#Variables: 510 (441 primary variables)
  - 502 Booleans in [0,1]
  - 7 in [0,2]
  - 1 in [0,9]
#kAtMostOne: 50 (#literals: 207)
#kBoolAnd: 279 (#enforced: 279) (#literals: 747)
#kBoolAndClauses: 76 (#enforced: 76 #multi: 76) (#literals: 350)
#kBoolOr: 1'589 (#literals: 4'814)
#kExactlyOne: 53 (#literals: 203)
#kLinear1: 36 (#enforced: 36)
#kLinearN: 811 (#enforced: 120) (#terms: 5'451)
[Symmetry] Graph for symmetry has 4'169 nodes and 13'197 arcs.
[Symmetry] Symmetry computation done. time: 0.00085579 dtime: 0.00139141

Preloading model.
#Model   0.10s var:510/510 constraints:2894/2894

Starting search at 0.10s with 4 workers.
3 full problem subsolvers: [default_lp, max_lp, no_lp]
1 first solution subsolver: [fj]
2 interleaved subsolvers: [feasibility_pump, rins/rens]
2 helper subsolvers: [neighborhood_helper, synchronization_agent]

#Model 609.51s var:509/510 constraints:2892/2894
#Model 1773.27s var:508/510 constraints:2890/2894

Task timing                   n [     min,      max]      avg      dev     time         n [     min,      max]      avg      dev    dtime
        'default_lp':         1 [  40.36m,   40.36m]   40.36m   0.00ns   40.36m         2 [  2.25ms,   38.71m]   19.35m   19.35m   38.71m
  'feasibility_pump':     12007 [ 37.13us, 149.07ms]   1.57ms   1.38ms   18.82s     12005 [294.48us, 128.12ms] 307.02us   1.17ms    3.69s
                'fj':      8469 [110.64ms, 206.92ms] 141.79ms   8.93ms   20.01m      8469 [ 90.04ms, 100.13ms] 100.02ms 109.29us   14.12m
            'max_lp':         1 [  40.36m,   40.36m]   40.36m   0.00ns   40.36m         2 [ 85.69ms,   51.76m]   25.88m   25.88m   51.76m
             'no_lp':         1 [  40.36m,   40.36m]   40.36m   0.00ns   40.36m         2 [  2.04ms,    1.22h]   36.64m   36.64m    1.22h
         'rins/rens':     10993 [853.54us, 238.56ms] 109.22ms  40.81ms   20.01m     10989 [185.13us, 100.39ms]  68.06ms  37.32ms   12.47m

Search stats     Bools   Conflicts    Branches  Restarts  BacktrackToRoot   Backtrack     BoolPropag  IntegerPropag
  'default_lp':    502     209'016   8'709'048     1'326        1'472'013   2'004'846     99'599'810    118'704'077
      'max_lp':    502      94'857  11'360'912       622        1'927'800   2'430'702    127'625'440    167'028'520
       'no_lp':    502  18'014'726  25'556'056    61'818          642'463  18'599'214  1'653'355'524    444'236'648

SAT formula      Fixed  Equiv  Total  VarLeft  BinaryClauses  PermanentClauses  TemporaryClauses
  'default_lp':      2      2    502      498          2'816            49'470            13'110
      'max_lp':      2      2    502      498          2'816            48'781            10'647
       'no_lp':      2      2    502      498          2'816           144'219             9'512

SAT stats        ClassicMinim   LitRemoved  LitRemovedBinary   LitLearned  LitForgotten   Subsumed
  'default_lp':       187'924    2'357'659         1'416'035    7'034'241     4'688'283     65'488
      'max_lp':        81'834    1'064'316           565'091    2'736'852     1'795'338     25'291
       'no_lp':    16'128'004  287'011'006        95'004'599  457'626'990   366'647'548  4'660'008

Vivification       Clauses   Decisions  LitTrue  Subsumed  LitRemoved  DecisionReused  Conflicts
  'default_lp':  1'529'518   8'157'674        1    11'496     109'801         332'504        689
      'max_lp':  1'979'956  10'863'020        0    12'794     125'327         397'597        689
       'no_lp':    513'344   4'126'821        0    27'688     344'253         122'422        794

Clause deletion    at_true  l_and_not(l)  to_binary  sub_conflict  sub_extra  sub_decisions  sub_eager  sub_vivify  sub_probing  sub_inpro  blocked  eliminated   forgotten    promoted   conflicts
    'default_lp':       56             0          2        64'643        543          1'596        845      11'496          366      4'443        0           0     122'789     411'877     209'016
        'max_lp':       58             0          3        25'032        238            380        259      12'794          332      1'743        0           0      54'652     193'413      94'857
         'no_lp':       78             0          4     4'588'958     37'782        179'786     71'050      27'688          624     73'112        0           0  12'888'991  41'434'093  18'014'726

Lp stats         Component  Iterations  AddedCuts  OPTIMAL  DUAL_F.  DUAL_U.
  'default_lp':          1  28'451'972     91'582  312'261        0  180'696
      'max_lp':          1  15'026'339     72'401   33'992   83'164   32'965

Lp dimension        Final dimension of first component
  'default_lp':    279 rows, 349 columns, 4404 entries
      'max_lp':  1473 rows, 510 columns, 20023 entries

Lp debug         CutPropag  CutEqPropag   Adjust  Overflow        Bad  BadScaling
  'default_lp':          0          225  180'689         0  2'608'553           0
      'max_lp':          0          234   32'958         0  2'103'329           0

Lp pool          Constraints  Updates  Simplif  Merged  Shortened  Split  Strengthened       Cuts/Call
  'default_lp':       10'353   20'012        0       0          0      0             0  91'582/136'430
      'max_lp':       12'623   21'246        0       8          1      0         2'413  72'401/117'882

Lp Cut            default_lp  max_lp
          CG_FF:       1'635     167
           CG_K:         932      17
          CG_KL:         802       3
           CG_R:       1'723     125
          CG_RB:          59      11
         CG_RBP:          26       6
         Clique:           -     291
             IB:         195      33
       MIR_1_FF:         698     872
        MIR_1_K:         182      41
       MIR_1_KL:         515      32
        MIR_1_R:         637     284
       MIR_1_RB:          15       8
      MIR_1_RBP:           1       -
      MIR_1_RLT:           -  10'463
       MIR_2_FF:         596     665
        MIR_2_K:         130     110
       MIR_2_KL:         302      56
        MIR_2_R:       1'468     488
       MIR_2_RB:         121       7
      MIR_2_RBP:           9       6
       MIR_3_FF:         310     219
        MIR_3_K:          49      19
       MIR_3_KL:         116      16
        MIR_3_R:         879     189
       MIR_3_RB:          69      11
      MIR_3_RBP:          14       2
       MIR_4_FF:          96      55
        MIR_4_K:          26      19
       MIR_4_KL:          40       4
        MIR_4_R:         711     157
       MIR_4_RB:          49       6
      MIR_4_RBP:          17       2
       MIR_5_FF:          40      27
        MIR_5_K:          14       8
       MIR_5_KL:           4       2
        MIR_5_R:         409      92
       MIR_5_RB:          29       3
      MIR_5_RBP:          11       1
       MIR_6_FF:          30       7
        MIR_6_K:          11       3
       MIR_6_KL:           1       -
        MIR_6_R:         273      84
       MIR_6_RB:          13       5
      MIR_6_RBP:           5       1
   ZERO_HALF_FF:         385     780
    ZERO_HALF_K:         105      75
   ZERO_HALF_KL:         143      12
    ZERO_HALF_R:      77'613  56'820
   ZERO_HALF_RB:          21       8
  ZERO_HALF_RBP:          53      89

LNS stats       Improv/Calls  Closed  Difficulty  TimeLimit
  'rins/rens':   10990/10990     50%    7.50e-01       0.10

LS stats                                    Batches  Restarts/Perturbs    LinMoves    GenMoves  CompoundMoves  Bactracks  WeightUpdates  ScoreComputed
                             'fj_restart':      255                116   8'665'964           0              0          0      5'886'569     14'522'468
                    'fj_restart_compound':      623                124           0   7'213'956        339'802  3'436'830         18'058    116'262'753
                'fj_restart_compound_obj':      873                109           0  10'220'598        314'902  4'952'623         31'474    164'575'711
            'fj_restart_compound_perturb':      334                106           0   3'834'443        258'370  1'787'809          7'918     62'297'435
        'fj_restart_compound_perturb_obj':      763                133           0   9'069'984        374'983  4'347'217         22'780    142'941'578
                       'fj_restart_decay':      336                113  11'438'661           0              0          0        450'563      8'845'428
              'fj_restart_decay_compound':      664                116           0   8'643'690      1'405'672  3'618'708          8'535    126'272'527
          'fj_restart_decay_compound_obj':      442                110           0   5'566'569        910'123  2'327'913          5'703     83'899'506
      'fj_restart_decay_compound_perturb':      583                111           0   7'522'715      1'217'404  3'152'375          7'476    110'887'381
  'fj_restart_decay_compound_perturb_obj':      739                108           0   9'764'176      1'572'600  4'095'564          9'375    140'733'422
                   'fj_restart_decay_obj':      399                109  13'593'499           0              0          0        535'106     10'520'652
               'fj_restart_decay_perturb':      339                108  11'544'083           0              0          0        454'686      8'948'647
           'fj_restart_decay_perturb_obj':      691                123  23'565'732           0              0          0        925'975     18'211'660
                         'fj_restart_obj':      527                122  17'763'563           0              0          0     13'011'674     30'403'555
                     'fj_restart_perturb':      470                124  16'289'761           0              0          0     11'401'473     26'356'531
                 'fj_restart_perturb_obj':      431                126  14'559'520           0              0          0     10'525'419     24'572'962

Solution repositories    Added  Queried  Synchro
    'alternative_path':      0        0        0
      'best_solutions':      0        0        0
   'fj solution hints':  1'850        0    1'850
        'lp solutions':  1'206   10'992    1'198
                'pump':      0        0

Improving bounds shared    Num  Sym
            'default_lp':    1    0
                'max_lp':    1    0

Clauses shared    #Exported  #Imported  #BinaryRead  #BinaryTotal
   'default_lp':      2'610     58'562          377           377
       'max_lp':      2'854     58'263          377           377
        'no_lp':     57'713      5'615          377           377

LRAT_status: NA
CpSolverResponse summary:
status: UNKNOWN
objective: NA
best_bound: NA
integers: 361
booleans: 502
conflicts: 209016
branches: 8709048
propagations: 99599810
integer_propagations: 118704077
restarts: 1326
lp_iterations: 28451972
walltime: 2421.74
usertime: 2421.74
deterministic_time: 11423.4
gap_integral: 0

{
  "board_size": 22,
  "parity_proved": 0,
  "target": 34,
  "child_id": 1522,
  "child_count": 2640,
  "partition": "unknown_pair_x_diag_plus_twos_x_diag_minus_twos",
  "build_seconds": 0.07955574989318848,
  "workers": 4,
  "requested_seed": 2026073622,
  "effective_seed": 2026073622,
  "main_diagonal_pair": [
    3,
    16
  ],
  "pair_index": 69,
  "diag_plus_twos": 16,
  "diag_minus_twos": 16,
  "pair_excess": 0,
  "residual_certificate_slack": 112,
  "analytic_minimum_line_defect": 24,
  "analytic_defect_details": {
    "row_costs": {
      "12": 6,
      "13": 3,
      "14": 0,
      "15": 0,
      "16": 0,
      "17": 0
    },
    "column_costs": {
      "12": 6,
      "13": 3,
      "14": 0,
      "15": 0,
      "16": 0,
      "17": 0
    },
    "plus_cost": 24,
    "minus_cost": 0,
    "row_column_minimum": 0
  },
  "maximal_line_constraints": 2455,
  "analytic_infeasible": false,
  "allowed_points": 242,
  "status": "UNKNOWN",
  "proof_method": "cp_sat_all_lines_with_certificate_profile_cuts",
  "elapsed_seconds": 2421.7432894706726,
  "branches": 8709048,
  "conflicts": 209016
}
